
        $ From http://www.csplib.org/Problems/prob009/data/helmut.pdf
        $ Problem number 198
        $ Sequence length : 25
        language ESSENCE' 1.0
        letting sizemaster be 603
        letting sizes be sequence(13,23,26,27,35,44,45,49,53,54,57,66,75,99,101,110,122,126,144,158,175,180,189,234,270)
        